NAME : in_house_8_14
TYPE : TSP
DIMENSION : 8
EDGE_WEIGHT_TYPE : EXPLICIT
EDGE_WEIGHT_FORMAT : UPPER_ROW
COMMENT : INVERSION_SHIFT=6
EDGE_WEIGHT_SECTION
48
29
16
16
33
22
53
32
50
50
12
40
54
53
30
57
44
18
14
59
43
14
19
64
8
47
47
51
